(set-logic QF_S)
(declare-fun var0 () String)
(declare-fun var1 () String)
(declare-fun var2 () String)
(declare-fun var3 () Int)
(declare-fun var4 () Int)
(declare-fun var5 () String)
(declare-fun var6 () Int)
(declare-fun var7 () Int)
(assert (str.prefixof var0 var1))
(assert (<= (str.to.int (str.substr var2 var3 var4)) (str.indexof var5 var0 var6)))
(assert (<= (str.len var5) (str.indexof (str.substr var5 8 var7) (str.substr var2 var4 var3) (str.indexof var0 var2 143))))
(assert (>= (str.len var1) (str.indexof var1 var0 var4)))
(check-sat)